SAT
-14 66 -86 69 -22 29 1 77 98 57 -89 78 -47 -88 -59 -10 -60 6 -85 100 -81 -48 -49 -39 32 -75 41 -64 -27 -34 -38 76 -79 82 37 -52 -30 2 5 -28 62 13 97 -25 -45 73 -55 -87 42 9 23 -36 -51 -53 -74 67 94 80 33 -96 65 7 -91 -40 -15 11 -43 -4 8 70 46 -21 19 58 -90 84 -63 68 83 24 -61 -16 71 93 50 17 95 -35 -56 -3 99 -44 -72 -12 26 54 -18 -92 20 -31 0
